c b=7,c=513
p cnf 23 30
7 -14 0
7 -23 0
-7 14 0
-7 23 0
6 -13 0
6 -22 0
-6 13 0
-6 22 0
5 -12 0
5 -21 0
-5 12 0
-5 21 0
4 -11 0
4 -20 0
-4 11 0
-4 20 0
3 -10 0
3 -19 0
-3 10 0
-3 19 0
2 -9 0
2 -18 0
-2 9 0
-2 18 0
1 -8 0
1 -17 0
-1 8 0
-1 17 0
-15 0
-16 0
